;; translated from ./ctigar/split.c.vmt
;; original benchmark available at: https://es-static.fbk.eu/people/griggio/ic3ia/index.html
;; author: Alberto Griggio <griggio@fbk.eu>
(set-logic HORN)
(declare-fun state (Bool Bool Bool Bool Bool Int Int Int Int Int) Bool)
(assert (forall ((|.s.2| Bool) (|.s.3| Bool) (|.s.0| Bool) (|.s.1| Bool) (|.s.1.next| Bool) (|.s.0.next| Bool) (|.s.2.next| Bool) (|.s.3.next| Bool) (|.s.4.next| Bool) (|main.i.next| Int) (|main.i| Int) (|main.j.next| Int) (|main.j| Int) (|main.k.next| Int) (|main.k| Int) (|main.b.next| Int) (|main.b| Int) (|main.n.next| Int) (|main.n| Int) (|.s.4| Bool)) (=> (let ((.def_20 (not .s.4)))
(let ((.def_17 (not .s.3)))
(let ((.def_14 (not .s.2)))
(let ((.def_10 (not .s.1)))
(let ((.def_12 (and .def_10 .s.0)))
(let ((.def_15 (and .def_12 .def_14)))
(let ((.def_18 (and .def_15 .def_17)))
(let ((.def_21 (and .def_18 .def_20)))
.def_21)))))))) (state |.s.1| |.s.0| |.s.2| |.s.3| |.s.4| |main.i| |main.j| |main.k| |main.b| |main.n|))))
(assert (forall ((|.s.2| Bool) (|.s.3| Bool) (|.s.0| Bool) (|.s.1| Bool) (|.s.1.next| Bool) (|.s.0.next| Bool) (|.s.2.next| Bool) (|.s.3.next| Bool) (|.s.4.next| Bool) (|main.i.next| Int) (|main.i| Int) (|main.j.next| Int) (|main.j| Int) (|main.k.next| Int) (|main.k| Int) (|main.b.next| Int) (|main.b| Int) (|main.n.next| Int) (|main.n| Int) (|.s.4| Bool)) (=> (and (state |.s.1| |.s.0| |.s.2| |.s.3| |.s.4| |main.i| |main.j| |main.k| |main.b| |main.n|) (let ((.def_22 (not .s.0)))
(let ((.def_10 (not .s.1)))
(let ((.def_75 (and .def_10 .def_22)))
(let ((.def_14 (not .s.2)))
(let ((.def_76 (and .def_14 .def_75)))
(let ((.def_17 (not .s.3)))
(let ((.def_77 (and .def_17 .def_76)))
(let ((.def_20 (not .s.4)))
(let ((.def_322 (and .def_20 .def_77)))
(let ((.def_323 (not .def_322)))
(let ((.def_64 (not .s.1.next)))
(let ((.def_29 (not .s.0.next)))
(let ((.def_65 (and .def_29 .def_64)))
(let ((.def_33 (not .s.2.next)))
(let ((.def_66 (and .def_33 .def_65)))
(let ((.def_36 (not .s.3.next)))
(let ((.def_67 (and .def_36 .def_66)))
(let ((.def_63 (not .s.4.next)))
(let ((.def_68 (and .def_63 .def_67)))
(let ((.def_42 (= main.i main.i.next)))
(let ((.def_69 (and .def_42 .def_68)))
(let ((.def_46 (= main.j main.j.next)))
(let ((.def_70 (and .def_46 .def_69)))
(let ((.def_50 (= main.k main.k.next)))
(let ((.def_71 (and .def_50 .def_70)))
(let ((.def_54 (= main.b main.b.next)))
(let ((.def_72 (and .def_54 .def_71)))
(let ((.def_58 (= main.n main.n.next)))
(let ((.def_73 (and .def_58 .def_72)))
(let ((.def_324 (or .def_73 .def_323)))
(let ((.def_31 (and .def_29 .s.1.next)))
(let ((.def_34 (and .def_31 .def_33)))
(let ((.def_37 (and .def_34 .def_36)))
(let ((.def_315 (and .def_37 .def_63)))
(let ((.def_314 (= main.i.next main.j)))
(let ((.def_316 (and .def_314 .def_315)))
(let ((.def_317 (and .def_46 .def_316)))
(let ((.def_318 (and .def_50 .def_317)))
(let ((.def_319 (and .def_54 .def_318)))
(let ((.def_320 (and .def_58 .def_319)))
(let ((.def_12 (and .def_10 .s.0)))
(let ((.def_15 (and .def_12 .def_14)))
(let ((.def_18 (and .def_15 .def_17)))
(let ((.def_21 (and .def_18 .def_20)))
(let ((.def_313 (not .def_21)))
(let ((.def_321 (or .def_313 .def_320)))
(let ((.def_325 (and .def_321 .def_324)))
(let ((.def_112 (and .s.0.next .s.1.next)))
(let ((.def_218 (and .def_33 .def_112)))
(let ((.def_305 (and .def_36 .def_218)))
(let ((.def_306 (and .def_63 .def_305)))
(let ((.def_304 (= main.k.next 100)))
(let ((.def_307 (and .def_304 .def_306)))
(let ((.def_308 (and .def_42 .def_307)))
(let ((.def_309 (and .def_46 .def_308)))
(let ((.def_310 (and .def_54 .def_309)))
(let ((.def_311 (and .def_58 .def_310)))
(let ((.def_23 (and .s.1 .def_22)))
(let ((.def_24 (and .def_14 .def_23)))
(let ((.def_25 (and .def_17 .def_24)))
(let ((.def_301 (and .def_20 .def_25)))
(let ((.def_302 (not .def_301)))
(let ((.def_312 (or .def_302 .def_311)))
(let ((.def_326 (and .def_312 .def_325)))
(let ((.def_294 (= main.n.next 0)))
(let ((.def_157 (and .s.2.next .def_65)))
(let ((.def_169 (and .def_36 .def_157)))
(let ((.def_170 (and .def_63 .def_169)))
(let ((.def_295 (and .def_170 .def_294)))
(let ((.def_296 (and .def_42 .def_295)))
(let ((.def_297 (and .def_46 .def_296)))
(let ((.def_298 (and .def_50 .def_297)))
(let ((.def_299 (and .def_54 .def_298)))
(let ((.def_90 (and .s.1 .s.0)))
(let ((.def_152 (and .def_14 .def_90)))
(let ((.def_291 (and .def_17 .def_152)))
(let ((.def_292 (and .def_20 .def_291)))
(let ((.def_293 (not .def_292)))
(let ((.def_300 (or .def_293 .def_299)))
(let ((.def_327 (and .def_300 .def_326)))
(let ((.def_80 (and .s.0.next .def_64)))
(let ((.def_253 (and .s.2.next .def_80)))
(let ((.def_283 (and .def_36 .def_253)))
(let ((.def_284 (and .def_63 .def_283)))
(let ((.def_285 (and .def_42 .def_284)))
(let ((.def_286 (and .def_46 .def_285)))
(let ((.def_287 (and .def_50 .def_286)))
(let ((.def_288 (and .def_54 .def_287)))
(let ((.def_289 (and .def_58 .def_288)))
(let ((.def_264 (* (- 1) main.n)))
(let ((.def_266 (* 2 main.k)))
(let ((.def_268 (+ .def_266 .def_264)))
(let ((.def_269 (<= .def_268 0)))
(let ((.def_280 (not .def_269)))
(let ((.def_140 (and .s.2 .def_75)))
(let ((.def_262 (and .def_17 .def_140)))
(let ((.def_263 (and .def_20 .def_262)))
(let ((.def_281 (and .def_263 .def_280)))
(let ((.def_282 (not .def_281)))
(let ((.def_290 (or .def_282 .def_289)))
(let ((.def_328 (and .def_290 .def_327)))
(let ((.def_113 (and .s.2.next .def_112)))
(let ((.def_272 (and .s.3.next .def_113)))
(let ((.def_273 (and .def_63 .def_272)))
(let ((.def_274 (and .def_42 .def_273)))
(let ((.def_275 (and .def_46 .def_274)))
(let ((.def_276 (and .def_50 .def_275)))
(let ((.def_277 (and .def_54 .def_276)))
(let ((.def_278 (and .def_58 .def_277)))
(let ((.def_270 (and .def_263 .def_269)))
(let ((.def_271 (not .def_270)))
(let ((.def_279 (or .def_271 .def_278)))
(let ((.def_329 (and .def_279 .def_328)))
(let ((.def_254 (and .s.3.next .def_253)))
(let ((.def_255 (and .def_63 .def_254)))
(let ((.def_256 (and .def_42 .def_255)))
(let ((.def_257 (and .def_46 .def_256)))
(let ((.def_258 (and .def_50 .def_257)))
(let ((.def_259 (and .def_54 .def_258)))
(let ((.def_260 (and .def_58 .def_259)))
(let ((.def_122 (and .def_12 .s.2)))
(let ((.def_239 (and .def_17 .def_122)))
(let ((.def_240 (and .def_20 .def_239)))
(let ((.def_204 (= main.b 0)))
(let ((.def_251 (and .def_204 .def_240)))
(let ((.def_252 (not .def_251)))
(let ((.def_261 (or .def_252 .def_260)))
(let ((.def_330 (and .def_261 .def_329)))
(let ((.def_131 (and .def_31 .s.2.next)))
(let ((.def_243 (and .def_36 .def_131)))
(let ((.def_244 (and .def_63 .def_243)))
(let ((.def_245 (and .def_42 .def_244)))
(let ((.def_246 (and .def_46 .def_245)))
(let ((.def_247 (and .def_50 .def_246)))
(let ((.def_248 (and .def_54 .def_247)))
(let ((.def_249 (and .def_58 .def_248)))
(let ((.def_205 (not .def_204)))
(let ((.def_241 (and .def_205 .def_240)))
(let ((.def_242 (not .def_241)))
(let ((.def_250 (or .def_242 .def_249)))
(let ((.def_331 (and .def_250 .def_330)))
(let ((.def_230 (* (- 1) main.i.next)))
(let ((.def_231 (+ main.i .def_230)))
(let ((.def_232 (= .def_231 (- 1))))
(let ((.def_114 (and .def_36 .def_113)))
(let ((.def_115 (and .def_63 .def_114)))
(let ((.def_233 (and .def_115 .def_232)))
(let ((.def_234 (and .def_46 .def_233)))
(let ((.def_235 (and .def_50 .def_234)))
(let ((.def_236 (and .def_54 .def_235)))
(let ((.def_237 (and .def_58 .def_236)))
(let ((.def_108 (and .s.2 .def_23)))
(let ((.def_227 (and .def_17 .def_108)))
(let ((.def_228 (and .def_20 .def_227)))
(let ((.def_229 (not .def_228)))
(let ((.def_238 (or .def_229 .def_237)))
(let ((.def_332 (and .def_238 .def_331)))
(let ((.def_219 (and .s.3.next .def_218)))
(let ((.def_220 (and .def_63 .def_219)))
(let ((.def_221 (and .def_42 .def_220)))
(let ((.def_222 (and .def_46 .def_221)))
(let ((.def_223 (and .def_50 .def_222)))
(let ((.def_224 (and .def_54 .def_223)))
(let ((.def_225 (and .def_58 .def_224)))
(let ((.def_91 (and .s.2 .def_90)))
(let ((.def_202 (and .def_17 .def_91)))
(let ((.def_203 (and .def_20 .def_202)))
(let ((.def_216 (and .def_203 .def_204)))
(let ((.def_217 (not .def_216)))
(let ((.def_226 (or .def_217 .def_225)))
(let ((.def_333 (and .def_226 .def_332)))
(let ((.def_208 (and .s.3.next .def_66)))
(let ((.def_209 (and .def_63 .def_208)))
(let ((.def_210 (and .def_42 .def_209)))
(let ((.def_211 (and .def_46 .def_210)))
(let ((.def_212 (and .def_50 .def_211)))
(let ((.def_213 (and .def_54 .def_212)))
(let ((.def_214 (and .def_58 .def_213)))
(let ((.def_206 (and .def_203 .def_205)))
(let ((.def_207 (not .def_206)))
(let ((.def_215 (or .def_207 .def_214)))
(let ((.def_334 (and .def_215 .def_333)))
(let ((.def_195 (= main.b.next 0)))
(let ((.def_81 (and .def_33 .def_80)))
(let ((.def_144 (and .s.3.next .def_81)))
(let ((.def_145 (and .def_63 .def_144)))
(let ((.def_196 (and .def_145 .def_195)))
(let ((.def_197 (and .def_42 .def_196)))
(let ((.def_198 (and .def_46 .def_197)))
(let ((.def_199 (and .def_50 .def_198)))
(let ((.def_200 (and .def_58 .def_199)))
(let ((.def_191 (and .s.3 .def_76)))
(let ((.def_192 (and .def_20 .def_191)))
(let ((.def_193 (not .def_192)))
(let ((.def_201 (or .def_193 .def_200)))
(let ((.def_335 (and .def_201 .def_334)))
(let ((.def_183 (and .def_34 .s.3.next)))
(let ((.def_184 (and .def_63 .def_183)))
(let ((.def_180 (* (- 1) main.n.next)))
(let ((.def_181 (+ main.n .def_180)))
(let ((.def_182 (= .def_181 (- 1))))
(let ((.def_185 (and .def_182 .def_184)))
(let ((.def_186 (and .def_42 .def_185)))
(let ((.def_187 (and .def_46 .def_186)))
(let ((.def_188 (and .def_50 .def_187)))
(let ((.def_189 (and .def_54 .def_188)))
(let ((.def_177 (and .def_15 .s.3)))
(let ((.def_178 (and .def_20 .def_177)))
(let ((.def_179 (not .def_178)))
(let ((.def_190 (or .def_179 .def_189)))
(let ((.def_336 (and .def_190 .def_335)))
(let ((.def_171 (and .def_42 .def_170)))
(let ((.def_172 (and .def_46 .def_171)))
(let ((.def_173 (and .def_50 .def_172)))
(let ((.def_174 (and .def_54 .def_173)))
(let ((.def_175 (and .def_58 .def_174)))
(let ((.def_166 (and .s.3 .def_24)))
(let ((.def_167 (and .def_20 .def_166)))
(let ((.def_168 (not .def_167)))
(let ((.def_176 (or .def_168 .def_175)))
(let ((.def_337 (and .def_176 .def_336)))
(let ((.def_158 (and .s.3.next .def_157)))
(let ((.def_159 (and .def_63 .def_158)))
(let ((.def_156 (= main.b.next 1)))
(let ((.def_160 (and .def_156 .def_159)))
(let ((.def_161 (and .def_42 .def_160)))
(let ((.def_162 (and .def_46 .def_161)))
(let ((.def_163 (and .def_50 .def_162)))
(let ((.def_164 (and .def_58 .def_163)))
(let ((.def_153 (and .s.3 .def_152)))
(let ((.def_154 (and .def_20 .def_153)))
(let ((.def_155 (not .def_154)))
(let ((.def_165 (or .def_155 .def_164)))
(let ((.def_338 (and .def_165 .def_337)))
(let ((.def_146 (and .def_42 .def_145)))
(let ((.def_147 (and .def_46 .def_146)))
(let ((.def_148 (and .def_50 .def_147)))
(let ((.def_149 (and .def_54 .def_148)))
(let ((.def_150 (and .def_58 .def_149)))
(let ((.def_141 (and .s.3 .def_140)))
(let ((.def_142 (and .def_20 .def_141)))
(let ((.def_143 (not .def_142)))
(let ((.def_151 (or .def_143 .def_150)))
(let ((.def_339 (and .def_151 .def_338)))
(let ((.def_132 (and .s.3.next .def_131)))
(let ((.def_133 (and .def_63 .def_132)))
(let ((.def_128 (* (- 1) main.j.next)))
(let ((.def_129 (+ main.j .def_128)))
(let ((.def_130 (= .def_129 (- 1))))
(let ((.def_134 (and .def_130 .def_133)))
(let ((.def_135 (and .def_42 .def_134)))
(let ((.def_136 (and .def_50 .def_135)))
(let ((.def_137 (and .def_54 .def_136)))
(let ((.def_138 (and .def_58 .def_137)))
(let ((.def_123 (and .s.3 .def_122)))
(let ((.def_124 (and .def_20 .def_123)))
(let ((.def_125 (not .def_124)))
(let ((.def_139 (or .def_125 .def_138)))
(let ((.def_340 (and .def_139 .def_339)))
(let ((.def_116 (and .def_42 .def_115)))
(let ((.def_117 (and .def_46 .def_116)))
(let ((.def_118 (and .def_50 .def_117)))
(let ((.def_119 (and .def_54 .def_118)))
(let ((.def_120 (and .def_58 .def_119)))
(let ((.def_109 (and .s.3 .def_108)))
(let ((.def_110 (and .def_20 .def_109)))
(let ((.def_111 (not .def_110)))
(let ((.def_121 (or .def_111 .def_120)))
(let ((.def_341 (and .def_121 .def_340)))
(let ((.def_101 (and .s.4.next .def_67)))
(let ((.def_102 (and .def_42 .def_101)))
(let ((.def_103 (and .def_46 .def_102)))
(let ((.def_104 (and .def_50 .def_103)))
(let ((.def_105 (and .def_54 .def_104)))
(let ((.def_106 (and .def_58 .def_105)))
(let ((.def_94 (= main.i main.j)))
(let ((.def_92 (and .s.3 .def_91)))
(let ((.def_93 (and .def_20 .def_92)))
(let ((.def_99 (and .def_93 .def_94)))
(let ((.def_100 (not .def_99)))
(let ((.def_107 (or .def_100 .def_106)))
(let ((.def_342 (and .def_107 .def_341)))
(let ((.def_95 (not .def_94)))
(let ((.def_96 (and .def_93 .def_95)))
(let ((.def_97 (not .def_96)))
(let ((.def_39 (and .def_37 .s.4.next)))
(let ((.def_43 (and .def_39 .def_42)))
(let ((.def_47 (and .def_43 .def_46)))
(let ((.def_51 (and .def_47 .def_50)))
(let ((.def_55 (and .def_51 .def_54)))
(let ((.def_59 (and .def_55 .def_58)))
(let ((.def_98 (or .def_59 .def_97)))
(let ((.def_343 (and .def_98 .def_342)))
(let ((.def_82 (and .def_36 .def_81)))
(let ((.def_83 (and .s.4.next .def_82)))
(let ((.def_84 (and .def_42 .def_83)))
(let ((.def_85 (and .def_46 .def_84)))
(let ((.def_86 (and .def_50 .def_85)))
(let ((.def_87 (and .def_54 .def_86)))
(let ((.def_88 (and .def_58 .def_87)))
(let ((.def_78 (and .s.4 .def_77)))
(let ((.def_79 (not .def_78)))
(let ((.def_89 (or .def_79 .def_88)))
(let ((.def_344 (and .def_89 .def_343)))
(let ((.def_61 (and .def_18 .s.4)))
(let ((.def_62 (not .def_61)))
(let ((.def_74 (or .def_62 .def_73)))
(let ((.def_345 (and .def_74 .def_344)))
(let ((.def_26 (and .s.4 .def_25)))
(let ((.def_27 (not .def_26)))
(let ((.def_60 (or .def_27 .def_59)))
(let ((.def_346 (and .def_60 .def_345)))
.def_346))))))))))))))))))))))))))))))))))))))))))))))))))))))))))))))))))))))))))))))))))))))))))))))))))))))))))))))))))))))))))))))))))))))))))))))))))))))))))))))))))))))))))))))))))))))))))))))))))))))))))))))))))))))))))))))))))))))))))))))))))))))))))))))))))))))))))))))))))))))))))))))))))))))))))))))))))))))))) (state |.s.1.next| |.s.0.next| |.s.2.next| |.s.3.next| |.s.4.next| |main.i.next| |main.j.next| |main.k.next| |main.b.next| |main.n.next|))))
(assert (forall ((|.s.2| Bool) (|.s.3| Bool) (|.s.0| Bool) (|.s.1| Bool) (|.s.1.next| Bool) (|.s.0.next| Bool) (|.s.2.next| Bool) (|.s.3.next| Bool) (|.s.4.next| Bool) (|main.i.next| Int) (|main.i| Int) (|main.j.next| Int) (|main.j| Int) (|main.k.next| Int) (|main.k| Int) (|main.b.next| Int) (|main.b| Int) (|main.n.next| Int) (|main.n| Int) (|.s.4| Bool)) (=> (state |.s.1| |.s.0| |.s.2| |.s.3| |.s.4| |main.i| |main.j| |main.k| |main.b| |main.n|) (let ((.def_22 (not .s.0)))
(let ((.def_23 (and .s.1 .def_22)))
(let ((.def_14 (not .s.2)))
(let ((.def_24 (and .def_14 .def_23)))
(let ((.def_17 (not .s.3)))
(let ((.def_25 (and .def_17 .def_24)))
(let ((.def_26 (and .s.4 .def_25)))
(let ((.def_27 (not .def_26)))
.def_27)))))))))))
(check-sat)
